networks/zoo_138_4692/zoo_138_4692.txt
Number of groups: 74
Flow 35: {35 36} {36 105} 
Flow 66: {68 67} {67 136} 
Flow 125: {63 64} {64 65} {65 58} {58 127} 
Flow 278: {5 8} {8 52} {52 7} {7 76} 
Flow 417: {9 10} {10 79} 
Flow 528: {8 5} {5 6} {6 55} {55 53} {53 122} 
Flow 624: {30 13} {13 82} 
Flow 639: {10 9} {9 37} {37 28} {28 97} 
Flow 673: {10 27} {27 62} {62 131} 
Flow 690: {6 4} {4 62} {62 27} {27 10} 
Flow 753: {12 11} {11 6} {6 5} {5 74} 
Flow 796: {11 51} {51 49} {49 118} 
Flow 901: {13 62} {62 17} {17 18} {18 87} 
Flow 978: {57 44} {44 14} {14 30} {30 27} {27 96} 
Flow 980: {43 16} {16 13} {13 33} {33 29} {29 98} 
Flow 996: {15 32} {32 45} {45 114} 
Flow 1029: {30 9} {9 78} 
Flow 1123: {17 62} {62 28} {28 36} 
Flow 1187: {43 45} {45 32} {32 101} 
Flow 1284: {47 4} {4 3} {3 61} {61 130} 
Flow 1341: {20 19} {19 24} {24 1} {1 50} {50 119} 
Flow 1384: {21 22} {22 23} {23 25} {25 94} 
Flow 1413: {19 47} {47 48} {48 54} {54 123} 
Flow 1447: {22 21} {21 19} {19 88} 
Flow 1537: {23 17} {17 40} {40 42} {42 111} 
Flow 1627: {24 23} {23 62} {62 64} {64 133} 
Flow 1782: {27 30} {30 14} {14 83} 
Flow 1898: {28 62} {62 63} {63 132} 
Flow 1912: {52 8} {8 77} 
Flow 1944: {29 33} {33 13} {13 14} {14 41} {41 110} 
Flow 1950: {33 2} {2 4} {4 47} {47 116} 
Flow 2056: {31 57} {57 43} 
Flow 2259: {14 44} {44 57} {57 31} {31 15} {15 84} 
Flow 2260: {34 41} {41 14} {14 13} {13 16} {16 85} 
Flow 2338: {18 26} {26 95} 
Flow 2382: {36 35} {35 63} {63 2} {2 71} 
Flow 2430: {2 49} {49 51} {51 120} 
Flow 2445: {36 28} {28 37} {37 9} {9 66} {66 135} 
Flow 2558: {38 9} {9 30} 
Flow 2601: {39 26} {26 18} {18 17} {17 86} 
Flow 2629: {26 25} {25 23} {23 4} {4 46} {46 115} 
Flow 2635: {4 2} {2 7} {7 52} {52 121} 
Flow 2808: {23 24} {24 19} {19 20} {20 89} 
Flow 2811: {40 17} {17 23} {23 92} 
Flow 2826: {42 64} {64 63} {63 9} {9 38} {38 107} 
Flow 2891: {16 44} {44 63} {63 35} {35 104} 
Flow 3023: {32 15} {15 31} {31 100} 
Flow 3048: {45 43} {43 57} {57 126} 
Flow 3061: {46 4} {4 1} {1 70} 
Flow 3344: {50 51} {51 11} {11 12} {12 81} 
Flow 3433: {49 2} {2 33} {33 102} 
Flow 3439: {25 26} {26 39} {39 108} 
Flow 3467: {51 50} {50 1} {1 69} {69 68} {68 137} 
Flow 3523: {7 2} {2 1} {1 55} {55 56} {56 125} 
Flow 3542: {55 6} {6 75} 
Flow 3594: {53 55} {55 1} {1 2} {2 59} {59 128} 
Flow 3625: {48 47} {47 19} {19 21} {21 90} 
Flow 3658: {54 55} {55 124} 
Flow 3706: {41 34} {34 103} 
Flow 3788: {56 55} {55 54} {54 48} {48 117} 
Flow 3988: {59 2} {2 63} {63 44} {44 113} 
Flow 4034: {3 4} {4 23} {23 22} {22 91} 
Flow 4036: {1 24} {24 93} 
Flow 4110: {62 13} {13 30} {30 99} 
Flow 4148: {61 60} {60 68} {68 69} {69 138} 
Flow 4259: {44 16} {16 43} {43 112} 
Flow 4295: {64 62} {62 4} {4 6} {6 11} {11 80} 
Flow 4412: {58 67} {67 68} {68 60} {60 129} 
Flow 4445: {66 9} {9 63} {63 62} {62 23} 
Flow 4457: {37 106} 
Flow 4492: {69 1} {1 4} {4 73} 
Flow 4559: {60 61} {61 3} {3 72} 
Flow 4596: {65 64} {64 42} {42 40} {40 109} 
Flow 4689: {67 58} {58 65} {65 134} 
Time taken running everything: 630 seconds
