networks/zoo_138_4692/standard/zoo_138_4692.sol
<?xml version = "1.0" encoding="UTF-8" standalone="yes"?>
<CPLEXSolution version="1.2">
 <header
   problemName="networks/zoo_138_4692/zoo_138_4692.lp"
   solutionName="incumbent"
   solutionIndex="-1"
   objectiveValue="74"
   solutionTypeValue="3"
   solutionTypeString="primal"
   solutionStatusValue="107"
   solutionStatusString="time limit exceeded"
   solutionMethodString="mip"
   primalFeasible="1"
   dualFeasible="0"
   MIPNodes="1532"
   MIPIterations="462476"
   writeLevel="3"/>
 <quality
   epInt="1.0000000000000001e-05"
   epRHS="9.9999999999999995e-07"
   maxIntInfeas="3.000000248221113e-09"
   maxPrimalInfeas="1.8000001489326678e-08"
   maxX="4"
   maxSlack="10"/>
 <variables>
  <variable name="Y(35,36)" index="4727" value="1"/>
  <variable name="Y(42,43)" index="5700" value="3.3332225868321075e-10"/>
  <variable name="Y(58,59)" index="7924" value="1.000000082740371e-09"/>
  <variable name="Y(66,67)" index="9036" value="1"/>
  <variable name="Y(125,58)" index="17169" value="1"/>
  <variable name="Y(278,7)" index="38232" value="1"/>
  <variable name="Y(417,10)" index="57417" value="1"/>
  <variable name="Y(528,53)" index="72778" value="1"/>
  <variable name="Y(624,13)" index="85986" value="1"/>
  <variable name="Y(639,28)" index="88071" value="1"/>
  <variable name="Y(673,62)" index="92797" value="1"/>
  <variable name="Y(690,27)" index="95108" value="1"/>
  <variable name="Y(753,5)" index="103780" value="1"/>
  <variable name="Y(796,49)" index="109758" value="1"/>
  <variable name="Y(901,18)" index="124217" value="1"/>
  <variable name="Y(967,16)" index="133323" value="1.000000082740371e-09"/>
  <variable name="Y(978,27)" index="134852" value="1"/>
  <variable name="Y(980,29)" index="135130" value="1"/>
  <variable name="Y(996,45)" index="137354" value="1"/>
  <variable name="Y(1029,9)" index="141872" value="1"/>
  <variable name="Y(1123,28)" index="154863" value="1"/>
  <variable name="Y(1187,32)" index="163699" value="1"/>
  <variable name="Y(1284,61)" index="177114" value="1"/>
  <variable name="Y(1341,50)" index="184969" value="1"/>
  <variable name="Y(1350,59)" index="186220" value="3.33333360913457e-10"/>
  <variable name="Y(1384,25)" index="190878" value="1"/>
  <variable name="Y(1413,54)" index="194909" value="1"/>
  <variable name="Y(1447,19)" index="199566" value="1"/>
  <variable name="Y(1537,42)" index="212009" value="1"/>
  <variable name="Y(1627,64)" index="224451" value="1"/>
  <variable name="Y(1782,14)" index="245791" value="1"/>
  <variable name="Y(1898,63)" index="261848" value="1"/>
  <variable name="Y(1912,8)" index="263725" value="1"/>
  <variable name="Y(1944,41)" index="268174" value="1"/>
  <variable name="Y(1950,47)" index="269008" value="1"/>
  <variable name="Y(2056,57)" index="283646" value="1"/>
  <variable name="Y(2259,15)" index="311618" value="1"/>
  <variable name="Y(2260,16)" index="311757" value="0.99999999899999992"/>
  <variable name="Y(2338,26)" index="322531" value="1"/>
  <variable name="Y(2382,2)" index="328579" value="1"/>
  <variable name="Y(2430,51)" index="335252" value="1"/>
  <variable name="Y(2445,66)" index="337337" value="1"/>
  <variable name="Y(2558,9)" index="352874" value="1"/>
  <variable name="Y(2601,17)" index="358816" value="1"/>
  <variable name="Y(2629,46)" index="362709" value="1"/>
  <variable name="Y(2635,52)" index="363543" value="1"/>
  <variable name="Y(2808,20)" index="387385" value="1"/>
  <variable name="Y(2811,23)" index="387802" value="1"/>
  <variable name="Y(2826,38)" index="389887" value="1"/>
  <variable name="Y(2891,35)" index="398854" value="1"/>
  <variable name="Y(2967,43)" index="409350" value="1.6666112508589233e-10"/>
  <variable name="Y(3023,31)" index="417066" value="1"/>
  <variable name="Y(3048,57)" index="420542" value="1"/>
  <variable name="Y(3061,1)" index="422280" value="1"/>
  <variable name="Y(3344,12)" index="461345" value="1"/>
  <variable name="Y(3433,33)" index="473648" value="1"/>
  <variable name="Y(3439,39)" index="474482" value="1"/>
  <variable name="Y(3467,68)" index="478375" value="1"/>
  <variable name="Y(3523,56)" index="486091" value="1"/>
  <variable name="Y(3542,6)" index="488663" value="1"/>
  <variable name="Y(3594,59)" index="495892" value="0.99999999899999992"/>
  <variable name="Y(3625,21)" index="500132" value="1"/>
  <variable name="Y(3658,55)" index="504720" value="1"/>
  <variable name="Y(3706,34)" index="511323" value="1"/>
  <variable name="Y(3788,48)" index="522653" value="1"/>
  <variable name="Y(3988,44)" index="550249" value="1"/>
  <variable name="Y(4034,22)" index="556575" value="1"/>
  <variable name="Y(4036,24)" index="556853" value="1"/>
  <variable name="Y(4110,30)" index="567071" value="1"/>
  <variable name="Y(4139,59)" index="571102" value="-3.33333360913457e-10"/>
  <variable name="Y(4148,69)" index="572354" value="1"/>
  <variable name="Y(4259,43)" index="587646" value="0.99999999950001661"/>
  <variable name="Y(4295,11)" index="592582" value="1"/>
  <variable name="Y(4412,60)" index="608777" value="1"/>
  <variable name="Y(4445,62)" index="613333" value="1"/>
  <variable name="Y(4457,37)" index="614964" value="1"/>
  <variable name="Y(4492,4)" index="619761" value="1"/>
  <variable name="Y(4559,3)" index="629006" value="1"/>
  <variable name="Y(4596,40)" index="634149" value="1"/>
  <variable name="Y(4689,65)" index="647008" value="1"/>
  <variable name="X(1,2,3594)" index="651089" value="1"/>
  <variable name="X(1,4,4492)" index="656679" value="1"/>
  <variable name="X(1,24,4036)" index="660915" value="1"/>
  <variable name="X(1,50,1341)" index="662912" value="1"/>
  <variable name="X(1,55,3523)" index="669786" value="1"/>
  <variable name="X(1,69,3467)" index="674422" value="1"/>
  <variable name="X(1,70,3061)" index="678708" value="1"/>
  <variable name="X(2,1,3523)" index="683862" value="1"/>
  <variable name="X(2,4,1950)" index="686981" value="1"/>
  <variable name="X(2,7,2635)" index="692358" value="1"/>
  <variable name="X(2,33,3433)" index="697848" value="1"/>
  <variable name="X(2,49,2430)" index="701537" value="1"/>
  <variable name="X(2,59,1350)" index="705149" value="1.333333443653828e-09"/>
  <variable name="X(2,59,3594)" index="707393" value="0.99999999899999992"/>
  <variable name="X(2,59,4139)" index="707938" value="-3.33333360913457e-10"/>
  <variable name="X(2,63,3988)" index="712479" value="1"/>
  <variable name="X(2,71,2382)" index="715565" value="1"/>
  <variable name="X(3,4,4034)" index="721909" value="1"/>
  <variable name="X(3,61,1284)" index="723851" value="1"/>
  <variable name="X(3,72,4559)" index="731818" value="1"/>
  <variable name="X(4,1,3061)" index="735012" value="1"/>
  <variable name="X(4,2,2635)" index="739278" value="1.0000000010000001"/>
  <variable name="X(4,2,4139)" index="740782" value="-1.000000082740371e-09"/>
  <variable name="X(4,3,1284)" index="742619" value="1"/>
  <variable name="X(4,6,4295)" index="750322" value="1"/>
  <variable name="X(4,23,4034)" index="754753" value="1"/>
  <variable name="X(4,46,2629)" index="758040" value="1"/>
  <variable name="X(4,47,1950)" index="762053" value="1"/>
  <variable name="X(4,62,690)" index="765485" value="1"/>
  <variable name="X(4,73,4492)" index="773979" value="1"/>
  <variable name="X(5,6,528)" index="774707" value="1"/>
  <variable name="X(5,8,278)" index="779149" value="1"/>
  <variable name="X(5,74,753)" index="784316" value="1"/>
  <variable name="X(6,4,690)" index="788945" value="1"/>
  <variable name="X(6,5,753)" index="793700" value="1"/>
  <variable name="X(6,11,4295)" index="801934" value="1"/>
  <variable name="X(6,55,528)" index="802859" value="1"/>
  <variable name="X(6,75,3542)" index="810565" value="1"/>
  <variable name="X(7,2,3523)" index="815238" value="1"/>
  <variable name="X(7,52,2635)" index="819042" value="1"/>
  <variable name="X(7,76,278)" index="821377" value="1"/>
  <variable name="X(8,5,528)" index="826319" value="1"/>
  <variable name="X(8,52,278)" index="830761" value="1"/>
  <variable name="X(8,77,1912)" index="837087" value="1"/>
  <variable name="X(9,10,417)" index="840284" value="1"/>
  <variable name="X(9,30,2558)" index="847117" value="1"/>
  <variable name="X(9,37,639)" index="849890" value="1"/>
  <variable name="X(9,38,2826)" index="856769" value="1"/>
  <variable name="X(9,63,4445)" index="863080" value="1"/>
  <variable name="X(9,66,2445)" index="865772" value="1"/>
  <variable name="X(9,78,1029)" index="869048" value="1"/>
  <variable name="X(10,9,639)" index="873350" value="1"/>
  <variable name="X(10,27,673)" index="878076" value="1"/>
  <variable name="X(10,79,417)" index="882512" value="1"/>
  <variable name="X(11,6,753)" index="887540" value="1"/>
  <variable name="X(11,12,3344)" index="894823" value="1"/>
  <variable name="X(11,51,796)" index="896967" value="1"/>
  <variable name="X(11,80,4295)" index="905158" value="1"/>
  <variable name="X(12,11,753)" index="906308" value="1"/>
  <variable name="X(12,81,3344)" index="913591" value="1"/>
  <variable name="X(13,14,1944)" index="916883" value="1"/>
  <variable name="X(13,16,1187)" index="920818" value="1.000000082740371e-09"/>
  <variable name="X(13,16,2260)" index="921891" value="0.99999999899999992"/>
  <variable name="X(13,30,4110)" index="928433" value="1"/>
  <variable name="X(13,33,980)" index="929995" value="1"/>
  <variable name="X(13,62,901)" index="934608" value="1"/>
  <variable name="X(13,82,624)" index="939023" value="1"/>
  <variable name="X(14,13,2260)" index="945351" value="1"/>
  <variable name="X(14,30,978)" index="948761" value="1"/>
  <variable name="X(14,41,1944)" index="954419" value="1"/>
  <variable name="X(14,44,2259)" index="959426" value="1"/>
  <variable name="X(14,83,1782)" index="963641" value="1"/>
  <variable name="X(15,31,3023)" index="969574" value="1"/>
  <variable name="X(15,32,996)" index="972239" value="1"/>
  <variable name="X(15,84,2259)" index="978194" value="1"/>
  <variable name="X(16,13,980)" index="981607" value="1"/>
  <variable name="X(16,43,1187)" index="986506" value="3.3332225017178467e-10"/>
  <variable name="X(16,43,2967)" index="988286" value="1.6666112508589233e-10"/>
  <variable name="X(16,43,4259)" index="989578" value="0.99999999950001661"/>
  <variable name="X(16,44,2891)" index="992902" value="1"/>
  <variable name="X(16,85,967)" index="995670" value="1.000000082740371e-09"/>
  <variable name="X(16,85,2260)" index="996963" value="0.99999999899999992"/>
  <variable name="X(17,18,901)" index="1000296" value="1"/>
  <variable name="X(17,23,2811)" index="1006898" value="1"/>
  <variable name="X(17,40,1537)" index="1010316" value="1"/>
  <variable name="X(17,62,1123)" index="1014594" value="1"/>
  <variable name="X(17,86,2601)" index="1020764" value="1"/>
  <variable name="X(18,17,2601)" index="1025456" value="1"/>
  <variable name="X(18,26,2338)" index="1029885" value="1"/>
  <variable name="X(18,87,901)" index="1033140" value="1"/>
  <variable name="X(19,20,2808)" index="1039739" value="1"/>
  <variable name="X(19,21,3625)" index="1045248" value="1"/>
  <variable name="X(19,24,1341)" index="1047656" value="1"/>
  <variable name="X(19,47,1413)" index="1052420" value="1"/>
  <variable name="X(19,88,1447)" index="1057146" value="1"/>
  <variable name="X(20,19,1341)" index="1061732" value="1"/>
  <variable name="X(20,89,2808)" index="1067891" value="1"/>
  <variable name="X(21,19,1447)" index="1071222" value="1"/>
  <variable name="X(21,22,1384)" index="1075851" value="1"/>
  <variable name="X(21,90,3625)" index="1082784" value="1"/>
  <variable name="X(22,21,1447)" index="1085298" value="1"/>
  <variable name="X(22,23,1384)" index="1089927" value="1"/>
  <variable name="X(22,91,4034)" index="1097269" value="1"/>
  <variable name="X(23,4,2629)" index="1100556" value="1"/>
  <variable name="X(23,17,1537)" index="1104156" value="1"/>
  <variable name="X(23,22,4034)" index="1111345" value="1"/>
  <variable name="X(23,24,2808)" index="1114811" value="1"/>
  <variable name="X(23,25,1384)" index="1118079" value="1"/>
  <variable name="X(23,62,1627)" index="1123014" value="1"/>
  <variable name="X(23,92,2811)" index="1128890" value="1"/>
  <variable name="X(24,1,1341)" index="1132112" value="1"/>
  <variable name="X(24,19,2808)" index="1138271" value="1.0000000010000001"/>
  <variable name="X(24,19,4643)" index="1140106" value="-1.000000082740371e-09"/>
  <variable name="X(24,23,1627)" index="1141782" value="1"/>
  <variable name="X(24,93,4036)" index="1148883" value="1"/>
  <variable name="X(25,23,2629)" index="1152168" value="1"/>
  <variable name="X(25,26,3439)" index="1157670" value="1"/>
  <variable name="X(25,94,1384)" index="1160307" value="1"/>
  <variable name="X(26,18,2601)" index="1166216" value="1"/>
  <variable name="X(26,25,2629)" index="1170936" value="1"/>
  <variable name="X(26,39,3439)" index="1176438" value="1"/>
  <variable name="X(26,95,2338)" index="1180029" value="1"/>
  <variable name="X(27,10,690)" index="1183073" value="1"/>
  <variable name="X(27,30,1782)" index="1188857" value="1"/>
  <variable name="X(27,62,673)" index="1192440" value="1"/>
  <variable name="X(27,96,978)" index="1197437" value="1"/>
  <variable name="X(28,36,1123)" index="1202274" value="1"/>
  <variable name="X(28,37,2445)" index="1208288" value="1"/>
  <variable name="X(28,62,1898)" index="1212433" value="1"/>
  <variable name="X(28,97,639)" index="1215866" value="1"/>
  <variable name="X(29,33,1944)" index="1221863" value="1"/>
  <variable name="X(29,98,980)" index="1225591" value="1"/>
  <variable name="X(30,9,1029)" index="1230332" value="1"/>
  <variable name="X(30,13,624)" index="1234619" value="1"/>
  <variable name="X(30,14,1782)" index="1240469" value="1"/>
  <variable name="X(30,27,978)" index="1244357" value="1"/>
  <variable name="X(30,99,4110)" index="1252181" value="1"/>
  <variable name="X(31,15,2259)" index="1255022" value="1"/>
  <variable name="X(31,57,2056)" index="1259511" value="1"/>
  <variable name="X(31,100,3023)" index="1265170" value="1"/>
  <variable name="X(32,15,3023)" index="1269862" value="1"/>
  <variable name="X(32,45,996)" index="1272527" value="1"/>
  <variable name="X(32,101,1187)" index="1277410" value="1"/>
  <variable name="X(33,2,1950)" index="1282865" value="1"/>
  <variable name="X(33,13,1944)" index="1287551" value="1"/>
  <variable name="X(33,29,980)" index="1291279" value="1"/>
  <variable name="X(33,102,3433)" index="1298424" value="1"/>
  <variable name="X(34,41,2260)" index="1301943" value="1"/>
  <variable name="X(34,103,3706)" index="1308081" value="1"/>
  <variable name="X(35,36,35)" index="1309102" value="1"/>
  <variable name="X(35,63,2382)" index="1316141" value="1"/>
  <variable name="X(35,104,2891)" index="1321342" value="1"/>
  <variable name="X(36,28,2445)" index="1325588" value="1"/>
  <variable name="X(36,35,2382)" index="1330217" value="1"/>
  <variable name="X(36,105,35)" index="1332562" value="1"/>
  <variable name="X(37,9,2445)" index="1339664" value="1"/>
  <variable name="X(37,28,639)" index="1342550" value="1"/>
  <variable name="X(37,106,4457)" index="1351060" value="1"/>
  <variable name="X(38,9,2558)" index="1353853" value="1"/>
  <variable name="X(38,107,2826)" index="1358813" value="1"/>
  <variable name="X(39,26,2601)" index="1363280" value="1"/>
  <variable name="X(39,108,3439)" index="1368810" value="1"/>
  <variable name="X(40,17,2811)" index="1372874" value="1"/>
  <variable name="X(40,42,1537)" index="1376292" value="1"/>
  <variable name="X(40,109,4596)" index="1384043" value="1"/>
  <variable name="X(41,14,2260)" index="1386399" value="1"/>
  <variable name="X(41,34,3706)" index="1392537" value="1"/>
  <variable name="X(41,110,1944)" index="1395467" value="1"/>
  <variable name="X(42,40,4596)" index="1402811" value="1"/>
  <variable name="X(42,64,2826)" index="1405733" value="1"/>
  <variable name="X(42,111,1537)" index="1409136" value="1"/>
  <variable name="X(43,16,967)" index="1413258" value="1.000000082740371e-09"/>
  <variable name="X(43,16,980)" index="1413271" value="1"/>
  <variable name="X(43,16,2069)" index="1414360" value="-1.000000082740371e-09"/>
  <variable name="X(43,45,1187)" index="1418170" value="1"/>
  <variable name="X(43,57,3048)" index="1424723" value="1"/>
  <variable name="X(43,112,42)" index="1426409" value="3.3332225868321075e-10"/>
  <variable name="X(43,112,2967)" index="1429334" value="1.6666112508589233e-10"/>
  <variable name="X(43,112,4259)" index="1430626" value="0.99999999950001661"/>
  <variable name="X(44,14,978)" index="1432037" value="1"/>
  <variable name="X(44,16,2967)" index="1438718" value="4.99983375257677e-10"/>
  <variable name="X(44,16,4259)" index="1440010" value="0.99999999950001661"/>
  <variable name="X(44,57,2259)" index="1442702" value="1"/>
  <variable name="X(44,63,2891)" index="1448026" value="1"/>
  <variable name="X(44,113,3988)" index="1453815" value="1"/>
  <variable name="X(45,32,1187)" index="1455706" value="1"/>
  <variable name="X(45,43,3048)" index="1462259" value="1"/>
  <variable name="X(45,114,996)" index="1464899" value="1"/>
  <variable name="X(46,4,3061)" index="1471656" value="1"/>
  <variable name="X(46,115,2629)" index="1475916" value="1"/>
  <variable name="X(47,4,1284)" index="1479263" value="1"/>
  <variable name="X(47,19,3625)" index="1486296" value="1"/>
  <variable name="X(47,48,1413)" index="1488776" value="1"/>
  <variable name="X(47,116,1950)" index="1494005" value="1"/>
  <variable name="X(48,47,3625)" index="1500372" value="1"/>
  <variable name="X(48,54,1413)" index="1502852" value="1"/>
  <variable name="X(48,117,3788)" index="1509919" value="1"/>
  <variable name="X(49,2,3433)" index="1514256" value="1"/>
  <variable name="X(49,51,2430)" index="1517945" value="1"/>
  <variable name="X(49,118,796)" index="1521003" value="1"/>
  <variable name="X(50,1,3467)" index="1528366" value="1"/>
  <variable name="X(50,51,3344)" index="1532935" value="1"/>
  <variable name="X(50,119,1341)" index="1535624" value="1"/>
  <variable name="X(51,11,3344)" index="1542319" value="1"/>
  <variable name="X(51,49,796)" index="1544463" value="1"/>
  <variable name="X(51,50,3467)" index="1551826" value="1"/>
  <variable name="X(51,120,2430)" index="1555481" value="1"/>
  <variable name="X(52,7,278)" index="1558021" value="1"/>
  <variable name="X(52,8,1912)" index="1564347" value="1"/>
  <variable name="X(52,121,2635)" index="1569762" value="1"/>
  <variable name="X(53,55,3538)" index="1575357" value="-3.000000248221113e-09"/>
  <variable name="X(53,55,3594)" index="1575413" value="1.0000000030000002"/>
  <variable name="X(53,122,528)" index="1577039" value="1"/>
  <variable name="X(54,48,3788)" index="1584991" value="1"/>
  <variable name="X(54,55,3658)" index="1589553" value="1"/>
  <variable name="X(54,123,1413)" index="1592000" value="1"/>
  <variable name="X(55,1,3594)" index="1598873" value="1"/>
  <variable name="X(55,6,3542)" index="1603513" value="1"/>
  <variable name="X(55,53,528)" index="1605191" value="1"/>
  <variable name="X(55,54,3788)" index="1613143" value="1"/>
  <variable name="X(55,56,3523)" index="1617570" value="1"/>
  <variable name="X(55,124,3658)" index="1622397" value="1"/>
  <variable name="X(56,55,3788)" index="1627219" value="1"/>
  <variable name="X(56,125,3523)" index="1631646" value="1"/>
  <variable name="X(57,31,2259)" index="1635074" value="1"/>
  <variable name="X(57,43,967)" index="1638474" value="1.000000082740371e-09"/>
  <variable name="X(57,43,2056)" index="1639563" value="1"/>
  <variable name="X(57,43,2069)" index="1639576" value="-1.000000082740371e-09"/>
  <variable name="X(57,44,978)" index="1643177" value="1"/>
  <variable name="X(57,126,3048)" index="1649939" value="1"/>
  <variable name="X(58,65,4689)" index="1656272" value="1"/>
  <variable name="X(58,67,2174)" index="1658449" value="9.9999997171806854e-10"/>
  <variable name="X(58,67,4412)" index="1660687" value="0.99999999900000003"/>
  <variable name="X(58,127,125)" index="1661092" value="1"/>
  <variable name="X(59,2,3988)" index="1669647" value="1"/>
  <variable name="X(59,128,58)" index="1670409" value="1.000000082740371e-09"/>
  <variable name="X(59,128,1350)" index="1671701" value="3.33333360913457e-10"/>
  <variable name="X(59,128,3594)" index="1673945" value="0.99999999899999992"/>
  <variable name="X(59,128,4139)" index="1674490" value="-3.33333360913457e-10"/>
  <variable name="X(60,61,4559)" index="1679602" value="1"/>
  <variable name="X(60,68,4148)" index="1683883" value="1"/>
  <variable name="X(60,129,4412)" index="1688839" value="1"/>
  <variable name="X(61,3,4559)" index="1693678" value="1"/>
  <variable name="X(61,60,4148)" index="1697959" value="1"/>
  <variable name="X(61,130,1284)" index="1699787" value="1"/>
  <variable name="X(62,4,4295)" index="1707490" value="1"/>
  <variable name="X(62,13,4110)" index="1711997" value="1"/>
  <variable name="X(62,17,901)" index="1713480" value="1"/>
  <variable name="X(62,23,4445)" index="1721716" value="1"/>
  <variable name="X(62,27,690)" index="1722653" value="1"/>
  <variable name="X(62,28,1123)" index="1727778" value="1"/>
  <variable name="X(62,63,1898)" index="1733245" value="1"/>
  <variable name="X(62,64,1627)" index="1737666" value="1"/>
  <variable name="X(62,131,673)" index="1741404" value="1"/>
  <variable name="X(63,2,2382)" index="1747805" value="1"/>
  <variable name="X(63,9,2826)" index="1752941" value="1"/>
  <variable name="X(63,35,2891)" index="1757698" value="1"/>
  <variable name="X(63,44,3988)" index="1763487" value="1"/>
  <variable name="X(63,62,4445)" index="1768636" value="1"/>
  <variable name="X(63,64,125)" index="1769008" value="1"/>
  <variable name="X(63,132,1898)" index="1775473" value="1"/>
  <variable name="X(64,42,4596)" index="1782863" value="1"/>
  <variable name="X(64,62,4295)" index="1787254" value="1"/>
  <variable name="X(64,63,2826)" index="1790477" value="1"/>
  <variable name="X(64,65,125)" index="1792468" value="1"/>
  <variable name="X(64,133,1627)" index="1798662" value="1"/>
  <variable name="X(65,58,125)" index="1801852" value="1"/>
  <variable name="X(65,64,4596)" index="1811015" value="1"/>
  <variable name="X(65,134,4689)" index="1815800" value="1"/>
  <variable name="X(66,9,4445)" index="1820248" value="1"/>
  <variable name="X(66,135,2445)" index="1822940" value="1"/>
  <variable name="X(67,58,4689)" index="1829876" value="1"/>
  <variable name="X(67,68,4412)" index="1834291" value="1"/>
  <variable name="X(67,136,66)" index="1834637" value="1"/>
  <variable name="X(68,60,4412)" index="1843675" value="1"/>
  <variable name="X(68,67,66)" index="1844021" value="1"/>
  <variable name="X(68,69,4148)" index="1852795" value="1"/>
  <variable name="X(68,137,3467)" index="1856806" value="1"/>
  <variable name="X(69,1,4492)" index="1862523" value="1"/>
  <variable name="X(69,68,3467)" index="1866190" value="1"/>
  <variable name="X(69,138,4148)" index="1871563" value="1"/>
  <variable name="C(35,36)" index="1872256" value="1"/>
  <variable name="C(66,67)" index="1872383" value="1"/>
  <variable name="C(125,64)" index="1872610" value="1"/>
  <variable name="C(125,65)" index="1872611" value="2"/>
  <variable name="C(125,58)" index="1872612" value="3"/>
  <variable name="C(278,8)" index="1873241" value="1"/>
  <variable name="C(278,52)" index="1873242" value="2"/>
  <variable name="C(278,7)" index="1873243" value="3"/>
  <variable name="C(417,10)" index="1873922" value="1"/>
  <variable name="C(528,5)" index="1874528" value="1"/>
  <variable name="C(528,6)" index="1874529" value="2"/>
  <variable name="C(528,55)" index="1874530" value="3"/>
  <variable name="C(528,53)" index="1874531" value="4"/>
  <variable name="C(624,13)" index="1875004" value="1.0000000010000001"/>
  <variable name="C(639,10)" index="1875076" value="1"/>
  <variable name="C(639,9)" index="1875077" value="2"/>
  <variable name="C(639,37)" index="1875078" value="3"/>
  <variable name="C(639,28)" index="1875079" value="4"/>
  <variable name="C(673,27)" index="1875264" value="1"/>
  <variable name="C(673,62)" index="1875265" value="2"/>
  <variable name="C(690,4)" index="1875338" value="1"/>
  <variable name="C(690,62)" index="1875339" value="2.0000000030000002"/>
  <variable name="C(690,27)" index="1875340" value="3.0000000030000002"/>
  <variable name="C(753,11)" index="1875683" value="1"/>
  <variable name="C(753,6)" index="1875684" value="2"/>
  <variable name="C(753,5)" index="1875685" value="3"/>
  <variable name="C(796,51)" index="1875970" value="1"/>
  <variable name="C(796,49)" index="1875971" value="2"/>
  <variable name="C(901,62)" index="1876455" value="1.0000000030000002"/>
  <variable name="C(901,17)" index="1876456" value="2.0000000030000002"/>
  <variable name="C(901,18)" index="1876457" value="3.0000000030000002"/>
  <variable name="C(967,43)" index="1876817" value="1.000000082740371e-09"/>
  <variable name="C(967,16)" index="1876818" value="4.000000330961484e-09"/>
  <variable name="C(978,44)" index="1876905" value="1"/>
  <variable name="C(978,14)" index="1876906" value="2"/>
  <variable name="C(978,30)" index="1876907" value="3"/>
  <variable name="C(978,27)" index="1876908" value="4"/>
  <variable name="C(980,16)" index="1876920" value="1"/>
  <variable name="C(980,13)" index="1876921" value="2"/>
  <variable name="C(980,33)" index="1876922" value="3"/>
  <variable name="C(980,29)" index="1876923" value="4"/>
  <variable name="C(996,32)" index="1877015" value="1"/>
  <variable name="C(996,45)" index="1877016" value="2"/>
  <variable name="C(1029,9)" index="1877246" value="1"/>
  <variable name="C(1123,62)" index="1877683" value="1"/>
  <variable name="C(1123,28)" index="1877684" value="2"/>
  <variable name="C(1187,16)" index="1877994" value="1.000000082740371e-09"/>
  <variable name="C(1187,43)" index="1877995" value="1.3333223329121557e-09"/>
  <variable name="C(1187,45)" index="1877996" value="1.0000000013333223"/>
  <variable name="C(1187,32)" index="1877997" value="2.0000000013333219"/>
  <variable name="C(1284,4)" index="1878516" value="1"/>
  <variable name="C(1284,3)" index="1878517" value="2"/>
  <variable name="C(1284,61)" index="1878518" value="3"/>
  <variable name="C(1341,19)" index="1878858" value="1"/>
  <variable name="C(1341,24)" index="1878859" value="2"/>
  <variable name="C(1341,1)" index="1878860" value="3"/>
  <variable name="C(1341,50)" index="1878861" value="4"/>
  <variable name="C(1350,59)" index="1878918" value="1.333333443653828e-09"/>
  <variable name="C(1384,22)" index="1879098" value="1"/>
  <variable name="C(1384,23)" index="1879099" value="2"/>
  <variable name="C(1384,25)" index="1879100" value="3"/>
  <variable name="C(1413,47)" index="1879274" value="1"/>
  <variable name="C(1413,48)" index="1879275" value="2"/>
  <variable name="C(1413,54)" index="1879276" value="3"/>
  <variable name="C(1447,21)" index="1879452" value="1"/>
  <variable name="C(1447,19)" index="1879453" value="2"/>
  <variable name="C(1537,17)" index="1879857" value="1"/>
  <variable name="C(1537,40)" index="1879858" value="2"/>
  <variable name="C(1537,42)" index="1879859" value="3"/>
  <variable name="C(1627,23)" index="1880257" value="1"/>
  <variable name="C(1627,62)" index="1880258" value="2"/>
  <variable name="C(1627,64)" index="1880259" value="3"/>
  <variable name="C(1782,30)" index="1881070" value="1"/>
  <variable name="C(1782,14)" index="1881071" value="2"/>
  <variable name="C(1898,62)" index="1881605" value="1"/>
  <variable name="C(1898,63)" index="1881606" value="2"/>
  <variable name="C(1912,8)" index="1881671" value="1"/>
  <variable name="C(1944,33)" index="1881849" value="1"/>
  <variable name="C(1944,13)" index="1881850" value="2"/>
  <variable name="C(1944,14)" index="1881851" value="3"/>
  <variable name="C(1944,41)" index="1881852" value="4"/>
  <variable name="C(1950,2)" index="1881882" value="1"/>
  <variable name="C(1950,4)" index="1881883" value="2"/>
  <variable name="C(1950,47)" index="1881884" value="3"/>
  <variable name="C(2056,57)" index="1882431" value="1"/>
  <variable name="C(2069,43)" index="1882521" value="-1.000000082740371e-09"/>
  <variable name="C(2174,67)" index="1883267" value="3.9999998868722741e-09"/>
  <variable name="C(2259,44)" index="1883686" value="1"/>
  <variable name="C(2259,57)" index="1883687" value="2"/>
  <variable name="C(2259,31)" index="1883688" value="3"/>
  <variable name="C(2259,15)" index="1883689" value="4"/>
  <variable name="C(2260,41)" index="1883691" value="1"/>
  <variable name="C(2260,14)" index="1883692" value="2"/>
  <variable name="C(2260,13)" index="1883693" value="2.9999999969999998"/>
  <variable name="C(2260,16)" index="1883694" value="3.9999999959999997"/>
  <variable name="C(2338,26)" index="1884182" value="1"/>
  <variable name="C(2382,35)" index="1884389" value="1"/>
  <variable name="C(2382,63)" index="1884390" value="2"/>
  <variable name="C(2382,2)" index="1884391" value="3"/>
  <variable name="C(2430,49)" index="1884644" value="1"/>
  <variable name="C(2430,51)" index="1884645" value="2"/>
  <variable name="C(2445,28)" index="1884724" value="1"/>
  <variable name="C(2445,37)" index="1884725" value="2"/>
  <variable name="C(2445,9)" index="1884726" value="3"/>
  <variable name="C(2445,66)" index="1884727" value="4"/>
  <variable name="C(2558,9)" index="1885329" value="1"/>
  <variable name="C(2601,26)" index="1885595" value="1"/>
  <variable name="C(2601,18)" index="1885596" value="2"/>
  <variable name="C(2601,17)" index="1885597" value="3"/>
  <variable name="C(2629,25)" index="1885775" value="1"/>
  <variable name="C(2629,23)" index="1885776" value="2"/>
  <variable name="C(2629,4)" index="1885777" value="3"/>
  <variable name="C(2629,46)" index="1885778" value="4"/>
  <variable name="C(2635,2)" index="1885819" value="1.0000000010000001"/>
  <variable name="C(2635,7)" index="1885820" value="2.0000000020000002"/>
  <variable name="C(2635,52)" index="1885821" value="3.0000000030000002"/>
  <variable name="C(2808,24)" index="1886809" value="1.0000000010000001"/>
  <variable name="C(2808,19)" index="1886810" value="2.0000000020000002"/>
  <variable name="C(2808,20)" index="1886811" value="3.0000000030000002"/>
  <variable name="C(2811,17)" index="1886825" value="1"/>
  <variable name="C(2811,23)" index="1886826" value="2"/>
  <variable name="C(2826,64)" index="1886902" value="1"/>
  <variable name="C(2826,63)" index="1886903" value="2"/>
  <variable name="C(2826,9)" index="1886904" value="3"/>
  <variable name="C(2826,38)" index="1886905" value="4"/>
  <variable name="C(2891,44)" index="1887251" value="1"/>
  <variable name="C(2891,63)" index="1887252" value="2"/>
  <variable name="C(2891,35)" index="1887253" value="3"/>
  <variable name="C(2967,16)" index="1887645" value="4.99983375257677e-10"/>
  <variable name="C(2967,43)" index="1887646" value="6.6664450034356934e-10"/>
  <variable name="C(3023,15)" index="1887966" value="1"/>
  <variable name="C(3023,31)" index="1887967" value="2"/>
  <variable name="C(3048,43)" index="1888133" value="1"/>
  <variable name="C(3048,57)" index="1888134" value="1.9999999999999991"/>
  <variable name="C(3061,4)" index="1888224" value="1"/>
  <variable name="C(3061,1)" index="1888225" value="2"/>
  <variable name="C(3344,51)" index="1889595" value="1"/>
  <variable name="C(3344,11)" index="1889596" value="2"/>
  <variable name="C(3344,12)" index="1889597" value="3"/>
  <variable name="C(3433,2)" index="1890061" value="1"/>
  <variable name="C(3433,33)" index="1890062" value="2"/>
  <variable name="C(3439,26)" index="1890100" value="1"/>
  <variable name="C(3439,39)" index="1890101" value="2"/>
  <variable name="C(3467,50)" index="1890248" value="1"/>
  <variable name="C(3467,1)" index="1890249" value="2"/>
  <variable name="C(3467,69)" index="1890250" value="3"/>
  <variable name="C(3467,68)" index="1890251" value="4"/>
  <variable name="C(3523,2)" index="1890563" value="1"/>
  <variable name="C(3523,1)" index="1890564" value="2"/>
  <variable name="C(3523,55)" index="1890565" value="3"/>
  <variable name="C(3523,56)" index="1890566" value="4"/>
  <variable name="C(3542,6)" index="1890663" value="1"/>
  <variable name="C(3594,55)" index="1890977" value="1.0000000030000002"/>
  <variable name="C(3594,1)" index="1890978" value="1.9999999969999998"/>
  <variable name="C(3594,2)" index="1890979" value="2.9999999969999998"/>
  <variable name="C(3594,59)" index="1890980" value="3.9999999959999997"/>
  <variable name="C(3625,47)" index="1891146" value="1"/>
  <variable name="C(3625,19)" index="1891147" value="2"/>
  <variable name="C(3625,21)" index="1891148" value="3"/>
  <variable name="C(3658,55)" index="1891348" value="1"/>
  <variable name="C(3706,34)" index="1891592" value="1"/>
  <variable name="C(3788,55)" index="1892048" value="1"/>
  <variable name="C(3788,54)" index="1892049" value="2"/>
  <variable name="C(3788,48)" index="1892050" value="3"/>
  <variable name="C(3988,2)" index="1893139" value="1"/>
  <variable name="C(3988,63)" index="1893140" value="2"/>
  <variable name="C(3988,44)" index="1893141" value="3"/>
  <variable name="C(4034,4)" index="1893387" value="1"/>
  <variable name="C(4034,23)" index="1893388" value="2"/>
  <variable name="C(4034,22)" index="1893389" value="3"/>
  <variable name="C(4036,24)" index="1893399" value="1"/>
  <variable name="C(4110,13)" index="1893832" value="1"/>
  <variable name="C(4110,30)" index="1893833" value="2"/>
  <variable name="C(4139,2)" index="1894009" value="-1.000000082740371e-09"/>
  <variable name="C(4139,59)" index="1894010" value="-1.333333443653828e-09"/>
  <variable name="C(4148,60)" index="1894048" value="1"/>
  <variable name="C(4148,68)" index="1894049" value="1.9999999969999998"/>
  <variable name="C(4148,69)" index="1894050" value="2.9999999969999998"/>
  <variable name="C(4259,16)" index="1894466" value="0.99999999950001661"/>
  <variable name="C(4259,43)" index="1894467" value="1.9999999990000332"/>
  <variable name="C(4295,62)" index="1894608" value="1"/>
  <variable name="C(4295,4)" index="1894609" value="2"/>
  <variable name="C(4295,6)" index="1894610" value="3"/>
  <variable name="C(4295,11)" index="1894611" value="4"/>
  <variable name="C(4412,67)" index="1895179" value="0.99999999900000003"/>
  <variable name="C(4412,68)" index="1895180" value="1.9999999989999999"/>
  <variable name="C(4412,60)" index="1895181" value="2.9999999989999999"/>
  <variable name="C(4445,9)" index="1895349" value="1"/>
  <variable name="C(4445,63)" index="1895350" value="2"/>
  <variable name="C(4445,62)" index="1895351" value="3"/>
  <variable name="C(4492,1)" index="1895612" value="1"/>
  <variable name="C(4492,4)" index="1895613" value="2"/>
  <variable name="C(4559,61)" index="1896027" value="1"/>
  <variable name="C(4559,3)" index="1896028" value="2"/>
  <variable name="C(4596,64)" index="1896265" value="1"/>
  <variable name="C(4596,42)" index="1896266" value="2"/>
  <variable name="C(4596,40)" index="1896267" value="3"/>
  <variable name="C(4643,19)" index="1896502" value="-1.000000082740371e-09"/>
  <variable name="C(4689,58)" index="1896735" value="1"/>
  <variable name="C(4689,65)" index="1896736" value="2"/>
 </variables>
</CPLEXSolution>
